NAME : portcgen-30-8
COMMENT : portcgen N=30, seed=8
TYPE : TSP
DIMENSION : 30
EDGE_WEIGHT_TYPE : EUC_2D
NODE_COORD_SECTION
1 -173175 10522
2 118459 117830
3 6997 -288164
4 -41453 -58760
5 -320714 107744
6 -13624 27643
7 -38828 -30438
8 137884 -158821
9 121257 -213468
10 96738 70547
11 46194 24217
12 87073 -128478
13 -75221 1279
14 -64038 133159
15 -96052 359238
16 -159432 271393
17 -223698 187823
18 -43829 130289
19 46164 -273786
20 -74083 208267
21 58991 240034
22 -137179 -60266
23 93160 -43145
24 39457 -126585
25 -129800 423330
26 -65642 -119603
27 247137 64806
28 -207413 39406
29 -108499 371029
30 20251 148245
